20	5
0	5	4	5	2	1	3
1	1	20
2	3	13	10	16
3	3	16	13	12
4	1	15
5	2	6	13
6	2	16	7
7	1	10
8	2	6	14
9	1	12
10	0
11	1	18
12	2	19	11
13	2	18	19
14	1	13
15	1	8
16	2	19	20
17	1	9
18	1	20
19	1	21
20	1	21
21	0
0	0	0	0	0	0	0
1	2	0	0	0	5	3
2	4	4	1	5	4	1
3	7	5	0	2	2	4
4	9	1	0	5	0	0
5	9	3	0	0	4	0
6	7	0	0	0	3	0
7	7	0	2	0	0	1
8	7	1	4	3	5	0
9	10	0	1	3	2	5
10	9	4	4	0	0	0
11	6	0	4	0	0	0
12	7	0	0	3	4	0
13	1	0	0	0	0	2
14	4	0	3	0	0	0
15	1	0	4	0	3	0
16	8	4	0	0	3	0
17	8	2	2	4	1	5
18	1	0	2	5	2	0
19	2	4	0	1	0	5
20	6	0	4	0	0	3
21	0	0	0	0	0	0
7	6	8	7	7
